NAME : G-n25-k9
CAPACITY : 901
NODE_COORD_SECTION
1   266   53
2   488   480
3   427   227
4   207   169
5   214   404
6   127   482
7   388   222
8   433   178
9   412   489
10   70   395
11   357   299
12   417   194
13   464   51
14   253   97
15   419   95
16   500   263
17   85   243
18   399   319
19   410   377
20   221   105
21   488   151
22   180   327
23   148   285
24   215   101
25   444   432
DEMAND_SECTION
1   0
2   59
3   12
4   55
5   77
6   33
7   23
8   76
9   8
10   37
11   99
12   28
13   81
14   21
15   84
16   36
17   21
18   39
19   19
20   68
21   14
22   37
23   6
24   14
25   43
DEPOT_SECTION
    1
    -1
EOF